c Result of efficient AIG-to-CNF conversion using package CNF
p cnf 320 802
2 -233 317 -318 0
-2 233 0
-2 -317 0
-2 318 0
3 315 -319 0
-3 -315 0
-3 319 0
4 314 -319 0
-4 -314 0
-4 319 0
5 319 -6 0
5 -318 -319 -62 0
-5 318 -319 0
-5 319 6 0
-5 -319 62 0
6 227 228 7 -8 0
6 -227 -228 7 -8 0
-6 8 0
-6 -227 228 0
-6 -7 0
-6 227 -228 0
-7 -229 -230 0
-7 229 230 0
7 229 -230 0
7 -229 230 0
8 223 224 9 -10 0
8 -223 -224 9 -10 0
-8 10 0
-8 -223 224 0
-8 -9 0
-8 223 -224 0
-9 -225 -226 0
-9 225 226 0
9 225 -226 0
9 -225 226 0
10 219 220 11 -12 0
10 -219 -220 11 -12 0
-10 12 0
-10 -219 220 0
-10 -11 0
-10 219 -220 0
-11 -221 -222 0
-11 221 222 0
11 221 -222 0
11 -221 222 0
12 215 216 13 -14 0
12 -215 -216 13 -14 0
-12 14 0
-12 -215 216 0
-12 -13 0
-12 215 -216 0
-13 -217 -218 0
-13 217 218 0
13 217 -218 0
13 -217 218 0
14 211 212 15 -16 0
14 -211 -212 15 -16 0
-14 16 0
-14 -211 212 0
-14 -15 0
-14 211 -212 0
-15 -213 -214 0
-15 213 214 0
15 213 -214 0
15 -213 214 0
16 207 208 17 -18 0
16 -207 -208 17 -18 0
-16 18 0
-16 -207 208 0
-16 -17 0
-16 207 -208 0
-17 -209 -210 0
-17 209 210 0
17 209 -210 0
17 -209 210 0
18 203 204 19 -20 0
18 -203 -204 19 -20 0
-18 20 0
-18 -203 204 0
-18 -19 0
-18 203 -204 0
-19 -205 -206 0
-19 205 206 0
19 205 -206 0
19 -205 206 0
20 199 200 21 -22 0
20 -199 -200 21 -22 0
-20 22 0
-20 -199 200 0
-20 -21 0
-20 199 -200 0
-21 -201 -202 0
-21 201 202 0
21 201 -202 0
21 -201 202 0
22 195 196 23 -24 0
22 -195 -196 23 -24 0
-22 24 0
-22 -195 196 0
-22 -23 0
-22 195 -196 0
-23 -197 -198 0
-23 197 198 0
23 197 -198 0
23 -197 198 0
24 190 191 25 -26 0
24 -190 -191 25 -26 0
-24 26 0
-24 -190 191 0
-24 -25 0
-24 190 -191 0
-25 -192 -193 0
-25 192 193 0
25 192 -193 0
25 -192 193 0
26 186 187 27 -28 0
26 -186 -187 27 -28 0
-26 28 0
-26 -186 187 0
-26 -27 0
-26 186 -187 0
-27 -188 -189 0
-27 188 189 0
27 188 -189 0
27 -188 189 0
28 182 183 29 -30 0
28 -182 -183 29 -30 0
-28 30 0
-28 -182 183 0
-28 -29 0
-28 182 -183 0
-29 -184 -185 0
-29 184 185 0
29 184 -185 0
29 -184 185 0
30 178 179 31 -32 0
30 -178 -179 31 -32 0
-30 32 0
-30 -178 179 0
-30 -31 0
-30 178 -179 0
-31 -180 -181 0
-31 180 181 0
31 180 -181 0
31 -180 181 0
32 174 175 33 -34 0
32 -174 -175 33 -34 0
-32 34 0
-32 -174 175 0
-32 -33 0
-32 174 -175 0
-33 -176 -177 0
-33 176 177 0
33 176 -177 0
33 -176 177 0
34 170 171 35 -36 0
34 -170 -171 35 -36 0
-34 36 0
-34 -170 171 0
-34 -35 0
-34 170 -171 0
-35 -172 -173 0
-35 172 173 0
35 172 -173 0
35 -172 173 0
36 166 167 37 -38 0
36 -166 -167 37 -38 0
-36 38 0
-36 -166 167 0
-36 -37 0
-36 166 -167 0
-37 -168 -169 0
-37 168 169 0
37 168 -169 0
37 -168 169 0
38 152 163 39 -40 0
38 -152 -163 39 -40 0
-38 40 0
-38 -152 163 0
-38 -39 0
-38 152 -163 0
-39 -164 -165 0
-39 164 165 0
39 164 -165 0
39 -164 165 0
40 -160 -161 -162 -41 0
-40 41 0
-40 160 0
-40 162 0
-40 161 0
41 153 154 162 -42 0
41 -153 -154 -162 -42 0
-41 -154 162 0
-41 153 -162 0
-41 42 0
-41 -153 154 0
42 154 155 157 -43 0
42 -154 -155 -157 -43 0
-42 -155 157 0
-42 154 -157 0
-42 43 0
-42 -154 155 0
43 151 157 158 -44 0
43 -151 -157 -158 -44 0
-43 -157 158 0
-43 151 -158 0
-43 44 0
-43 -151 157 0
44 151 165 194 -45 0
44 -151 -165 -194 -45 0
-44 -165 194 0
-44 151 -194 0
-44 45 0
-44 -151 165 0
45 165 169 173 -46 0
45 -165 -169 -173 -46 0
-45 -169 173 0
-45 165 -173 0
-45 46 0
-45 -165 169 0
46 173 177 179 -47 0
46 -173 -177 -179 -47 0
-46 -177 179 0
-46 173 -179 0
-46 47 0
-46 -173 177 0
47 179 183 187 -48 0
47 -179 -183 -187 -48 0
-47 -183 187 0
-47 179 -187 0
-47 48 0
-47 -179 183 0
48 187 191 196 -49 0
48 -187 -191 -196 -49 0
-48 -191 196 0
-48 187 -196 0
-48 49 0
-48 -187 191 0
49 196 200 204 -50 0
49 -196 -200 -204 -50 0
-49 -200 204 0
-49 196 -204 0
-49 50 0
-49 -196 200 0
50 204 208 214 -51 0
50 -204 -208 -214 -51 0
-50 -208 214 0
-50 204 -214 0
-50 51 0
-50 -204 208 0
51 214 216 220 -52 0
51 -214 -216 -220 -52 0
-51 -216 220 0
-51 214 -220 0
-51 52 0
-51 -214 216 0
52 -220 -224 -228 53 0
-52 -53 0
-52 220 0
-52 228 0
-52 224 0
-53 156 159 231 54 0
53 -54 0
53 -231 0
53 -156 0
53 -159 0
-54 159 163 167 55 0
-54 -159 -163 -167 55 0
54 -163 167 0
54 159 -167 0
54 -55 0
54 -159 163 0
-55 167 171 175 56 0
-55 -167 -171 -175 56 0
55 -171 175 0
55 167 -175 0
55 -56 0
55 -167 171 0
-56 175 181 185 57 0
-56 -175 -181 -185 57 0
56 -181 185 0
56 175 -185 0
56 -57 0
56 -175 181 0
-57 185 189 193 58 0
-57 -185 -189 -193 58 0
57 -189 193 0
57 185 -193 0
57 -58 0
57 -185 189 0
-58 193 198 202 59 0
-58 -193 -198 -202 59 0
58 -198 202 0
58 193 -202 0
58 -59 0
58 -193 198 0
-59 202 206 210 60 0
-59 -202 -206 -210 60 0
59 -206 210 0
59 202 -210 0
59 -60 0
59 -202 206 0
-60 210 212 218 61 0
-60 -210 -212 -218 61 0
60 -212 218 0
60 210 -218 0
60 -61 0
60 -210 212 0
-61 218 222 226 230 0
61 -230 0
61 -226 0
61 -218 0
61 -222 0
62 315 316 -63 147 0
62 -315 -316 -63 147 0
-62 -147 0
-62 -315 316 0
-62 63 0
-62 315 -316 0
63 152 64 -71 -73 0
63 -152 -64 -71 -73 0
-63 73 0
-63 152 -64 0
-63 71 0
-63 -152 64 0
-64 151 65 0
-64 235 65 0
64 -65 0
64 -151 -235 0
65 151 -158 66 -68 0
-65 -151 0
-65 68 0
-65 -66 0
-65 158 0
-66 158 159 0
-66 157 159 67 0
66 -159 0
66 -158 -67 0
66 -157 -158 0
-67 154 156 0
-67 155 156 0
-67 153 156 0
67 -156 0
67 -153 -154 -155 0
-68 157 69 0
68 -157 0
68 -69 0
-69 156 70 0
-69 154 156 0
-69 155 156 0
69 -156 0
69 -154 -155 -70 0
-70 153 160 162 0
-70 153 161 162 0
70 -153 0
70 -162 0
70 -160 -161 0
71 -164 72 0
71 164 -72 0
-71 164 72 0
-71 -164 -72 0
-72 -247 65 0
-72 151 65 0
72 -65 0
72 -151 247 0
73 168 74 76 -77 0
73 -168 74 -76 -77 0
-73 77 0
-73 -168 76 0
-73 -74 0
-73 168 -76 0
-74 166 75 0
-74 -166 -75 0
74 -166 75 0
74 166 -75 0
-75 151 249 0
-75 -151 235 0
75 -151 -235 0
75 151 -249 0
76 -151 -247 0
76 151 -251 0
-76 151 251 0
-76 -151 247 0
77 172 78 80 -81 0
77 -172 78 -80 -81 0
-77 81 0
-77 -172 80 0
-77 -78 0
-77 172 -80 0
-78 170 79 0
-78 -170 -79 0
78 -170 79 0
78 170 -79 0
-79 -151 253 0
-79 151 249 0
79 151 -249 0
79 -151 -253 0
80 151 -251 0
80 -151 -255 0
-80 -151 255 0
-80 151 251 0
81 176 82 84 -85 0
81 -176 82 -84 -85 0
-81 85 0
-81 -176 84 0
-81 -82 0
-81 176 -84 0
-82 174 83 0
-82 -174 -83 0
82 -174 83 0
82 174 -83 0
-83 151 257 0
-83 -151 253 0
83 -151 -253 0
83 151 -257 0
84 -151 -255 0
84 151 -259 0
-84 151 259 0
-84 -151 255 0
85 178 86 -90 -92 0
85 -178 -86 -90 -92 0
-85 92 0
-85 178 -86 0
-85 90 0
-85 -178 86 0
-86 151 87 0
-86 261 87 0
86 -87 0
86 -151 -261 0
87 151 -158 88 -89 0
-87 -151 0
-87 89 0
-87 -88 0
-87 158 0
-88 159 67 0
-88 157 159 0
-88 158 159 0
88 -159 0
88 -157 -158 -67 0
89 -157 -69 0
-89 157 0
-89 69 0
90 -180 91 0
90 180 -91 0
-90 180 91 0
-90 -180 -91 0
-91 -263 87 0
-91 151 87 0
91 -87 0
91 -151 263 0
92 184 93 95 -96 0
92 -184 93 -95 -96 0
-92 96 0
-92 -184 95 0
-92 -93 0
-92 184 -95 0
-93 182 94 0
-93 -182 -94 0
93 -182 94 0
93 182 -94 0
-94 151 265 0
-94 -151 261 0
94 -151 -261 0
94 151 -265 0
95 -151 -263 0
95 151 -267 0
-95 151 267 0
-95 -151 263 0
96 188 97 99 -100 0
96 -188 97 -99 -100 0
-96 100 0
-96 -188 99 0
-96 -97 0
-96 188 -99 0
-97 186 98 0
-97 -186 -98 0
97 -186 98 0
97 186 -98 0
-98 -151 269 0
-98 151 265 0
98 151 -265 0
98 -151 -269 0
99 151 -267 0
99 -151 -271 0
-99 -151 271 0
-99 151 267 0
100 192 101 103 -104 0
100 -192 101 -103 -104 0
-100 104 0
-100 -192 103 0
-100 -101 0
-100 192 -103 0
-101 190 102 0
-101 -190 -102 0
101 -190 102 0
101 190 -102 0
-102 151 273 0
-102 -151 269 0
102 -151 -269 0
102 151 -273 0
103 -151 -271 0
103 151 -275 0
-103 151 275 0
-103 -151 271 0
104 195 105 -106 -108 0
104 -195 -105 -106 -108 0
-104 108 0
-104 195 -105 0
-104 106 0
-104 -195 105 0
-105 -151 278 0
-105 151 194 0
105 151 -194 0
105 -151 -278 0
106 -197 107 0
106 197 -107 0
-106 197 107 0
-106 -197 -107 0
-107 -151 -280 0
-107 151 194 0
107 151 -194 0
107 -151 280 0
108 201 109 111 -112 0
108 -201 109 -111 -112 0
-108 112 0
-108 -201 111 0
-108 -109 0
-108 201 -111 0
-109 199 110 0
-109 -199 -110 0
109 -199 110 0
109 199 -110 0
-110 151 282 0
-110 -151 278 0
110 -151 -278 0
110 151 -282 0
111 -151 -280 0
111 151 -284 0
-111 151 284 0
-111 -151 280 0
112 205 113 115 -116 0
112 -205 113 -115 -116 0
-112 116 0
-112 -205 115 0
-112 -113 0
-112 205 -115 0
-113 203 114 0
-113 -203 -114 0
113 -203 114 0
113 203 -114 0
-114 -151 286 0
-114 151 282 0
114 151 -282 0
114 -151 -286 0
115 151 -284 0
115 -151 -288 0
-115 -151 288 0
-115 151 284 0
116 209 117 119 -120 0
116 -209 117 -119 -120 0
-116 120 0
-116 -209 119 0
-116 -117 0
-116 209 -119 0
-117 207 118 0
-117 -207 -118 0
117 -207 118 0
117 207 -118 0
-118 151 290 0
-118 -151 286 0
118 -151 -286 0
118 151 -290 0
119 -151 -288 0
119 151 -292 0
-119 151 292 0
-119 -151 288 0
120 211 -121 132 134 0
120 -211 121 132 134 0
-120 -134 0
-120 211 121 0
-120 -132 0
-120 -211 -121 0
121 151 -122 0
121 294 -122 0
-121 122 0
-121 -151 -294 0
-122 151 -123 0
-122 151 194 129 0
122 -151 0
122 -194 123 0
122 123 -129 0
123 -158 159 124 -126 0
-123 -124 0
-123 126 0
-123 158 0
-123 -159 0
-124 156 157 125 0
124 -156 0
124 -125 0
124 -157 0
125 -153 -154 -155 0
-125 153 0
-125 154 0
-125 155 0
-126 156 157 127 0
126 -156 0
126 -127 0
126 -157 0
127 -154 -155 -128 0
-127 154 0
-127 155 0
-127 128 0
-128 153 160 162 0
-128 153 161 162 0
128 -153 0
128 -162 0
128 -160 -161 0
129 159 67 -130 -131 0
-129 -159 0
-129 131 0
-129 130 0
-129 -67 0
130 -157 -158 0
-130 157 0
-130 158 0
-131 156 127 0
131 -156 0
131 -127 0
-132 -213 -133 0
-132 213 133 0
132 213 -133 0
132 -213 133 0
133 -296 -122 0
133 151 -122 0
-133 122 0
-133 -151 296 0
-134 217 135 137 138 0
-134 -217 135 -137 138 0
134 -138 0
134 -217 137 0
134 -135 0
134 217 -137 0
-135 215 136 0
-135 -215 -136 0
135 -215 136 0
135 215 -136 0
-136 151 298 0
-136 -151 296 0
136 -151 -296 0
136 151 -298 0
137 -151 -294 0
137 151 -300 0
-137 151 300 0
-137 -151 294 0
-138 221 139 141 142 0
-138 -221 139 -141 142 0
138 -142 0
138 -221 141 0
138 -139 0
138 221 -141 0
-139 219 140 0
-139 -219 -140 0
139 -219 140 0
139 219 -140 0
-140 -151 302 0
-140 151 298 0
140 151 -298 0
140 -151 -302 0
141 151 -300 0
141 -151 -304 0
-141 -151 304 0
-141 151 300 0
-142 223 143 144 0
-142 -223 -143 144 0
142 -144 0
142 223 -143 0
142 -223 143 0
-143 151 306 0
-143 -151 302 0
143 -151 -302 0
143 151 -306 0
-144 225 229 145 146 0
-144 -225 -229 -145 146 0
144 -229 145 0
144 225 -145 0
144 -146 0
144 -225 229 0
145 -151 -304 0
145 151 -308 0
-145 151 308 0
-145 -151 304 0
-146 227 143 0
-146 -227 -143 0
146 -227 143 0
146 227 -143 0
-147 -232 -148 0
-147 232 148 0
147 232 -148 0
147 -232 148 0
148 310 -312 149 -150 0
148 -310 312 -149 150 0
-148 312 -150 0
-148 310 150 0
-148 -312 -149 0
-148 -310 149 0
-149 259 0
-149 273 290 0
149 -259 -273 0
149 -259 -290 0
150 -257 0
150 -275 -292 0
-150 257 292 0
-150 257 275 0
-320 0
2 0
319 0
151 0
152 0
153 0
154 0
155 0
156 0
157 0
158 0
159 0
160 0
161 0
162 0
163 0
164 0
165 0
166 0
167 0
168 0
169 0
170 0
171 0
172 0
173 0
174 0
175 0
176 0
177 0
178 0
179 0
180 0
181 0
182 0
183 0
184 0
185 0
186 0
187 0
188 0
189 0
190 0
191 0
192 0
193 0
194 0
195 0
196 0
197 0
198 0
199 0
200 0
201 0
202 0
203 0
204 0
205 0
206 0
207 0
208 0
209 0
210 0
211 0
212 0
213 0
214 0
215 0
216 0
217 0
218 0
219 0
220 0
221 0
222 0
223 0
224 0
225 0
226 0
227 0
228 0
229 0
230 0
3 0
4 0
231 0
232 0
5 0
-320 0

